NAME : n60w200.002.572.tour
COMMENT : Length = 572
COMMENT : Found by LKH [Keld Helsgaun] Tue Nov  7 19:39:23 2017
TYPE : TOUR
DIMENSION : 61
TOUR_SECTION
1
34
20
28
31
29
6
45
19
9
22
15
23
4
25
49
56
24
57
16
46
43
11
55
26
7
40
32
44
47
41
35
42
13
3
37
14
10
30
8
53
54
17
50
60
51
12
27
38
2
36
52
33
48
39
21
18
58
59
61
5
-1
EOF
